NAME : X-n219-k73
COMMENT : "Generated by Uchoa, Pecin, Pessoa, Poggi, Subramanian, and Vidal (2013)"
TYPE : CVRP
DIMENSION : 219
EDGE_WEIGHT_TYPE : EUC_2D
CAPACITY : 3
NODE_COORD_SECTION
1 0 0
2 18 761
3 835 397
4 299 16
5 31 168
6 142 257
7 242 984
8 612 357
9 663 812
10 105 188
11 487 636
12 993 703
13 672 148
14 506 259
15 953 706
16 888 203
17 107 534
18 772 692
19 475 182
20 828 775
21 719 220
22 655 722
23 844 197
24 918 600
25 460 844
26 739 102
27 301 523
28 341 627
29 989 936
30 935 602
31 44 72
32 861 67
33 163 416
34 981 503
35 722 397
36 317 903
37 547 95
38 944 106
39 935 192
40 128 376
41 908 176
42 720 226
43 738 793
44 791 498
45 712 751
46 530 693
47 141 673
48 380 544
49 634 301
50 427 853
51 606 949
52 47 557
53 48 202
54 791 67
55 546 876
56 526 842
57 535 216
58 828 214
59 829 352
60 623 473
61 374 1000
62 74 187
63 275 415
64 726 789
65 51 597
66 894 395
67 159 743
68 301 893
69 755 946
70 978 261
71 709 153
72 391 153
73 876 370
74 846 725
75 604 107
76 117 709
77 507 89
78 348 744
79 476 204
80 181 957
81 948 710
82 158 788
83 414 685
84 358 66
85 196 732
86 283 343
87 456 931
88 5 468
89 459 43
90 555 414
91 94 964
92 558 360
93 641 424
94 132 16
95 777 947
96 25 205
97 852 45
98 5 686
99 400 682
100 501 234
101 905 968
102 492 971
103 817 114
104 651 941
105 817 643
106 735 937
107 333 829
108 223 584
109 306 412
110 209 663
111 206 549
112 542 691
113 296 10
114 215 747
115 148 641
116 9 553
117 411 59
118 382 800
119 824 612
120 608 727
121 481 574
122 169 950
123 350 608
124 396 536
125 36 459
126 359 339
127 798 917
128 10 569
129 813 10
130 569 627
131 692 467
132 166 178
133 247 413
134 738 487
135 508 327
136 158 986
137 983 244
138 637 109
139 177 207
140 357 374
141 361 972
142 365 701
143 582 957
144 712 996
145 932 452
146 847 981
147 60 66
148 252 267
149 944 435
150 338 688
151 900 168
152 583 871
153 852 59
154 921 72
155 845 534
156 387 253
157 812 354
158 5 404
159 590 575
160 930 128
161 184 742
162 832 466
163 285 346
164 548 976
165 32 531
166 966 58
167 31 40
168 162 539
169 621 425
170 802 495
171 385 493
172 769 329
173 921 15
174 64 106
175 854 678
176 943 122
177 103 285
178 304 739
179 398 212
180 335 459
181 43 108
182 400 255
183 935 851
184 179 147
185 822 749
186 60 32
187 829 992
188 783 760
189 218 360
190 321 463
191 403 172
192 32 134
193 218 490
194 44 456
195 430 570
196 896 875
197 509 572
198 424 936
199 639 505
200 914 852
201 984 435
202 479 341
203 207 937
204 709 700
205 235 795
206 557 130
207 270 964
208 482 320
209 60 761
210 836 272
211 413 327
212 509 379
213 961 329
214 819 754
215 176 910
216 648 809
217 640 892
218 838 79
219 552 232
PICKUP_AND_DELIVERY_SECTION
1 0 0 1000000000 0 0 0
2 0 0 1000000000 0 0.9763 0.02365
3 0 0 1000000000 0 0.5246 0.4754
4 0 0 1000000000 0 0.9465 0.05351
5 0 0 1000000000 0 0.8155 0.1845
6 0 0 1000000000 0 0.4475 0.5525
7 0 0 1000000000 0 0.7541 0.2459
8 0 0 1000000000 0 0.4167 0.5833
9 0 0 1000000000 0 0.1835 0.8165
10 0 0 1000000000 0 0.4415 0.5585
11 0 0 1000000000 0 0.2343 0.7657
12 0 0 1000000000 0 0.292 0.708
13 0 0 1000000000 0 0.7798 0.2202
14 0 0 1000000000 0 0.4881 0.5119
15 0 0 1000000000 0 0.2592 0.7408
16 0 0 1000000000 0 0.7714 0.2286
17 0 0 1000000000 0 0.7996 0.2004
18 0 0 1000000000 0 0.1036 0.8964
19 0 0 1000000000 0 0.6168 0.3832
20 0 0 1000000000 0 0.06401 0.936
21 0 0 1000000000 0 0.694 0.306
22 0 0 1000000000 0 0.0928 0.9072
23 0 0 1000000000 0 0.7666 0.2334
24 0 0 1000000000 0 0.3464 0.6536
25 0 0 1000000000 0 0.455 0.545
26 0 0 1000000000 0 0.862 0.138
27 0 0 1000000000 0 0.4245 0.5755
28 0 0 1000000000 0 0.4561 0.5439
29 0 0 1000000000 0 0.05359 0.9464
30 0 0 1000000000 0 0.3561 0.6439
31 0 0 1000000000 0 0.3889 0.6111
32 0 0 1000000000 0 0.9222 0.07782
33 0 0 1000000000 0 0.6082 0.3918
34 0 0 1000000000 0 0.4873 0.5127
35 0 0 1000000000 0 0.4501 0.5499
36 0 0 1000000000 0 0.6489 0.3511
37 0 0 1000000000 0 0.8263 0.1737
38 0 0 1000000000 0 0.8877 0.1123
39 0 0 1000000000 0 0.7947 0.2053
40 0 0 1000000000 0 0.6596 0.3404
41 0 0 1000000000 0 0.8062 0.1938
42 0 0 1000000000 0 0.6861 0.3139
43 0 0 1000000000 0 0.06936 0.9306
44 0 0 1000000000 0 0.3704 0.6296
45 0 0 1000000000 0 0.05193 0.9481
46 0 0 1000000000 0 0.2352 0.7648
47 0 0 1000000000 0 0.7905 0.2095
48 0 0 1000000000 0 0.3015 0.6985
49 0 0 1000000000 0 0.5252 0.4748
50 0 0 1000000000 0 0.4994 0.5006
51 0 0 1000000000 0 0.3614 0.6386
52 0 0 1000000000 0 0.9156 0.08438
53 0 0 1000000000 0 0.7624 0.2376
54 0 0 1000000000 0 0.9153 0.0847
55 0 0 1000000000 0 0.3767 0.6233
56 0 0 1000000000 0 0.3753 0.6247
57 0 0 1000000000 0 0.5963 0.4037
58 0 0 1000000000 0 0.7415 0.2585
59 0 0 1000000000 0 0.5754 0.4246
60 0 0 1000000000 0 0.2408 0.7592
61 0 0 1000000000 0 0.626 0.374
62 0 0 1000000000 0 0.6043 0.3957
63 0 0 1000000000 0 0.3373 0.6627
64 0 0 1000000000 0 0.07985 0.9202
65 0 0 1000000000 0 0.9146 0.08543
66 0 0 1000000000 0 0.5582 0.4418
67 0 0 1000000000 0 0.786 0.214
68 0 0 1000000000 0 0.6629 0.3371
69 0 0 1000000000 0 0.2019 0.7981
70 0 0 1000000000 0 0.7331 0.2669
71 0 0 1000000000 0 0.7842 0.2158
72 0 0 1000000000 0 0.6087 0.3913
73 0 0 1000000000 0 0.5776 0.4224
74 0 0 1000000000 0 0.143 0.857
75 0 0 1000000000 0 0.8228 0.1772
76 0 0 1000000000 0 0.835 0.165
77 0 0 1000000000 0 0.8245 0.1755
78 0 0 1000000000 0 0.5323 0.4677
79 0 0 1000000000 0 0.5714 0.4286
80 0 0 1000000000 0 0.8109 0.1891
81 0 0 1000000000 0 0.2511 0.7489
82 0 0 1000000000 0 0.7995 0.2005
83 0 0 1000000000 0 0.3956 0.6044
84 0 0 1000000000 0 0.8156 0.1844
85 0 0 1000000000 0 0.7322 0.2678
86 0 0 1000000000 0 0.1749 0.8251
87 0 0 1000000000 0 0.5102 0.4898
88 0 0 1000000000 0 0.9893 0.01068
89 0 0 1000000000 0 0.9063 0.09368
90 0 0 1000000000 0 0.2541 0.7459
91 0 0 1000000000 0 0.9025 0.09751
92 0 0 1000000000 0 0.3548 0.6452
93 0 0 1000000000 0 0.3385 0.6615
94 0 0 1000000000 0 0.8788 0.1212
95 0 0 1000000000 0 0.1795 0.8205
96 0 0 1000000000 0 0.878 0.122
97 0 0 1000000000 0 0.9472 0.05282
98 0 0 1000000000 0 0.9927 0.00729
99 0 0 1000000000 0 0.4135 0.5865
100 0 0 1000000000 0 0.5329 0.4671
101 0 0 1000000000 0 0.06508 0.9349
102 0 0 1000000000 0 0.4933 0.5067
103 0 0 1000000000 0 0.8605 0.1395
104 0 0 1000000000 0 0.3082 0.6918
105 0 0 1000000000 0 0.213 0.787
106 0 0 1000000000 0 0.2156 0.7844
107 0 0 1000000000 0 0.5983 0.4017
108 0 0 1000000000 0 0.6182 0.3818
109 0 0 1000000000 0 0.2573 0.7427
110 0 0 1000000000 0 0.6848 0.3152
111 0 0 1000000000 0 0.6248 0.3752
112 0 0 1000000000 0 0.2156 0.7844
113 0 0 1000000000 0 0.9662 0.03378
114 0 0 1000000000 0 0.7122 0.2878
115 0 0 1000000000 0 0.7691 0.2309
116 0 0 1000000000 0 0.9837 0.01627
117 0 0 1000000000 0 0.8564 0.1436
118 0 0 1000000000 0 0.5225 0.4775
119 0 0 1000000000 0 0.2573 0.7427
120 0 0 1000000000 0 0.1637 0.8363
121 0 0 1000000000 0 0.162 0.838
122 0 0 1000000000 0 0.8221 0.1779
123 0 0 1000000000 0 0.4243 0.5757
124 0 0 1000000000 0 0.2612 0.7388
125 0 0 1000000000 0 0.9216 0.07843
126 0 0 1000000000 0 0.05571 0.9443
127 0 0 1000000000 0 0.1298 0.8702
128 0 0 1000000000 0 0.9824 0.01757
129 0 0 1000000000 0 0.9877 0.0123
130 0 0 1000000000 0 0.0925 0.9075
131 0 0 1000000000 0 0.3251 0.6749
132 0 0 1000000000 0 0.06742 0.9326
133 0 0 1000000000 0 0.4019 0.5981
134 0 0 1000000000 0 0.3401 0.6599
135 0 0 1000000000 0 0.3563 0.6437
136 0 0 1000000000 0 0.8398 0.1602
137 0 0 1000000000 0 0.7518 0.2482
138 0 0 1000000000 0 0.8289 0.1711
139 0 0 1000000000 0 0.1449 0.8551
140 0 0 1000000000 0 0.04545 0.9545
141 0 0 1000000000 0 0.6286 0.3714
142 0 0 1000000000 0 0.4793 0.5207
143 0 0 1000000000 0 0.3918 0.6082
144 0 0 1000000000 0 0.2851 0.7149
145 0 0 1000000000 0 0.515 0.485
146 0 0 1000000000 0 0.1366 0.8634
147 0 0 1000000000 0 0.09091 0.9091
148 0 0 1000000000 0 0.05618 0.9438
149 0 0 1000000000 0 0.5392 0.4608
150 0 0 1000000000 0 0.5087 0.4913
151 0 0 1000000000 0 0.8133 0.1867
152 0 0 1000000000 0 0.3307 0.6693
153 0 0 1000000000 0 0.9308 0.06925
154 0 0 1000000000 0 0.9218 0.07818
155 0 0 1000000000 0 0.368 0.632
156 0 0 1000000000 0 0.3463 0.6537
157 0 0 1000000000 0 0.564 0.436
158 0 0 1000000000 0 0.9876 0.01238
159 0 0 1000000000 0 0.02542 0.9746
160 0 0 1000000000 0 0.8624 0.1376
161 0 0 1000000000 0 0.752 0.248
162 0 0 1000000000 0 0.4399 0.5601
163 0 0 1000000000 0 0.1763 0.8237
164 0 0 1000000000 0 0.4385 0.5615
165 0 0 1000000000 0 0.9397 0.06026
166 0 0 1000000000 0 0.94 0.06004
167 0 0 1000000000 0 0.225 0.775
168 0 0 1000000000 0 0.6994 0.3006
169 0 0 1000000000 0 0.3156 0.6844
170 0 0 1000000000 0 0.3828 0.6172
171 0 0 1000000000 0 0.2191 0.7809
172 0 0 1000000000 0 0.5722 0.4278
173 0 0 1000000000 0 0.9837 0.01629
174 0 0 1000000000 0 0.3962 0.6038
175 0 0 1000000000 0 0.2061 0.7939
176 0 0 1000000000 0 0.8706 0.1294
177 0 0 1000000000 0 0.6386 0.3614
178 0 0 1000000000 0 0.5886 0.4114
179 0 0 1000000000 0 0.4673 0.5327
180 0 0 1000000000 0 0.2702 0.7298
181 0 0 1000000000 0 0.6019 0.3981
182 0 0 1000000000 0 0.3625 0.6375
183 0 0 1000000000 0 0.08984 0.9102
184 0 0 1000000000 0 0.1788 0.8212
185 0 0 1000000000 0 0.08881 0.9112
186 0 0 1000000000 0 0.4667 0.5333
187 0 0 1000000000 0 0.1643 0.8357
188 0 0 1000000000 0 0.02937 0.9706
189 0 0 1000000000 0 0.3944 0.6056
190 0 0 1000000000 0 0.3067 0.6933
191 0 0 1000000000 0 0.5732 0.4268
192 0 0 1000000000 0 0.7612 0.2388
193 0 0 1000000000 0 0.5551 0.4449
194 0 0 1000000000 0 0.9035 0.09649
195 0 0 1000000000 0 0.2456 0.7544
196 0 0 1000000000 0 0.02344 0.9766
197 0 0 1000000000 0 0.1101 0.8899
198 0 0 1000000000 0 0.547 0.453
199 0 0 1000000000 0 0.2097 0.7903
200 0 0 1000000000 0 0.06783 0.9322
201 0 0 1000000000 0 0.5579 0.4421
202 0 0 1000000000 0 0.2881 0.7119
203 0 0 1000000000 0 0.7791 0.2209
204 0 0 1000000000 0 0.01269 0.9873
205 0 0 1000000000 0 0.7044 0.2956
206 0 0 1000000000 0 0.7666 0.2334
207 0 0 1000000000 0 0.7199 0.2801
208 0 0 1000000000 0 0.3361 0.6639
209 0 0 1000000000 0 0.9212 0.07884
210 0 0 1000000000 0 0.6746 0.3254
211 0 0 1000000000 0 0.2082 0.7918
212 0 0 1000000000 0 0.2554 0.7446
213 0 0 1000000000 0 0.6576 0.3424
214 0 0 1000000000 0 0.07937 0.9206
215 0 0 1000000000 0 0.8066 0.1934
216 0 0 1000000000 0 0.199 0.801
217 0 0 1000000000 0 0.2825 0.7175
218 0 0 1000000000 0 0.9057 0.09427
219 0 0 1000000000 0 0.5797 0.4203
